# Solution for model F-JSSP-SDST
# Objective value = 80
B0(10) 0
B1(10) 1
B2(10) 0
B3(10) 1
B4(9) 1
B5(9) 0
B6(9) 1
B7(9) 0
B8(0) 0
B9(0) 0
B10(4) 0
B11(4) 0
B12(0) 0
B13(0) 0
B14(4) 0
B15(4) 0
B16(0) 0
B17(0) 0
B18(0) 0
B19(0) 0
B20(0) 0
B21(0) 0
B22(0) 0
B23(0) 0
I24(10) 0
I25(10) 8
I26(13) 0
I27(13) 48
I28(10) 0
I29(10) 0
I30(13) 49
I31(13) 0
I32(1) 80
B33(0) 0
B34(0) 0
B35(3) 0
B36(3) 1
B37(0) 0
B38(0) 0
B39(3) 1
B40(3) 0
